! (Energy/Geometry) PM3
 $CONTRL 
COORD=UNIQUE
ICHARG=0
MAXIT=200
MULT=1
RUNTYP=OPTIMIZE
SCFTYP=RHF
UNITS=ANGS
! DFTTYP=PBE
 $END
 $DFT 
METHOD=GRID
 $END
 $BASIS 
! EXTFIL=.T.
! GBASIS=GEGSSBAS
! NGAUSS=6
GBASIS=PM3
! NDFUNC=1
! NPFUNC=1
 $END
 $SCF 
DAMP=.F.
DEM=.F.
DIIS=.F.
DIRSCF=.T.
EXTRAP=.T.
RSTRCT=.F.
SHIFT=.F.
SOSCF=.T.
 $END
 $STATPT 
METHOD=QA
NSTEP=100
OPTTOL=0.001
 $END
 $GUESS 
GUESS=HUCKEL
 $END
 $SYSTEM 
MWORDS=10
 $END
 $DATA 
C36 FULLERENE
C1
C	6.0	1.7098	-2.0822	0.589
C	6.0	2.6829	-1.3954	-0.0684
C	6.0	1.3942	-1.2966	1.6686
C	6.0	-0.9518	-1.7455	1.4248
C	6.0	0.1021	-1.0493	2.0382
C	6.0	2.993	-0.2165	0.5669
C	6.0	2.8194	0.7865	-0.3638
C	6.0	2.0319	1.876	-0.0859
C	6.0	2.139	-0.1446	1.6543
C	6.0	1.2715	0.9128	1.9391
C	6.0	1.2804	2.0526	1.0925
C	6.0	1.1449	2.0258	-1.1347
C	6.0	1.2339	0.9353	-1.973
C	6.0	0.0134	0.3009	-2.2745
C	6.0	-0.0374	2.4777	-0.6494
C	6.0	-1.2673	1.983	-1.0385
C	6.0	-1.2465	0.8594	-1.9019
C	6.0	0.0414	2.5563	0.7238
C	6.0	2.2048	-1.1567	-1.3212
C	6.0	0.9695	-1.7834	-1.4826
C	6.0	2.3105	0.1905	-1.529
C	6.0	-0.1051	-1.1024	-2.0795
C	6.0	-1.3973	-1.3501	-1.6919
C	6.0	-2.1272	-0.1792	-1.6286
C	6.0	-0.667	-2.4546	0.2043
C	6.0	0.6631	-2.4524	-0.2481
C	6.0	-2.6983	-1.4226	0.0381
C	6.0	-1.751	-2.1291	-0.6141
C	6.0	-2.8412	0.7983	0.3565
C	6.0	-3.011	-0.2116	-0.5573
C	6.0	-2.0354	1.8946	0.1316
C	6.0	-0.004	0.3488	2.2819
C	6.0	-1.2305	0.977	1.9774
C	6.0	-1.1613	2.1088	1.1847
C	6.0	-2.186	-1.127	1.2697
C	6.0	-2.2902	0.217	1.502
 $END