! (Energy/Geometry) PM3
 $CONTRL 
COORD=UNIQUE
ICHARG=0
MAXIT=200
MULT=1
RUNTYP=OPTIMIZE
SCFTYP=RHF
UNITS=ANGS
! DFTTYP=PBE
 $END
 $DFT 
METHOD=GRID
 $END
 $BASIS 
! EXTFIL=.T.
! GBASIS=GEGSSBAS
! NGAUSS=6
GBASIS=PM3
! NDFUNC=1
! NPFUNC=1
 $END
 $SCF 
DAMP=.F.
DEM=.F.
DIIS=.F.
DIRSCF=.T.
EXTRAP=.T.
RSTRCT=.F.
SHIFT=.F.
SOSCF=.T.
 $END
 $STATPT 
METHOD=QA
NSTEP=100
OPTTOL=0.001
 $END
 $GUESS 
GUESS=HUCKEL
 $END
 $SYSTEM 
MWORDS=10
 $END
 $DATA 
C36 FULLERENE
C1
C	6.0	-3.3212	-0.6202	0.0823
C	6.0	-2.4962	-1.6621	-0.278
C	6.0	-0.4358	-1.51	-1.5485
C	6.0	-1.7844	-1.1961	-1.4022
C	6.0	1.6186	-1.9658	-0.7187
C	6.0	0.2872	-2.2933	-0.6086
C	6.0	-3.2384	0.4026	-0.8255
C	6.0	-2.2334	0.0895	-1.6971
C	6.0	-2.7741	1.5056	-0.1824
C	6.0	-1.6379	1.9728	-0.7685
C	6.0	0.6682	2.2745	-0.1534
C	6.0	-0.6654	2.2604	0.1606
C	6.0	0.4885	-0.5542	-2.0305
C	6.0	0.1159	0.8273	-1.9967
C	6.0	-1.2502	1.0823	-1.7884
C	6.0	1.1174	1.6183	-1.3427
C	6.0	-2.427	1.1874	1.095
C	6.0	-2.7744	-0.1263	1.2669
C	6.0	-1.7661	-0.9651	1.632
C	6.0	-1.1147	1.616	1.349
C	6.0	1.2347	1.0628	1.7217
C	6.0	-0.1254	0.796	1.9748
C	6.0	-0.499	-0.5831	2.0366
C	6.0	1.668	1.9947	0.7625
C	6.0	-0.3091	-2.3191	0.6595
C	6.0	-1.644	-2.0113	0.7495
C	6.0	1.7693	-1.2344	1.4129
C	6.0	0.4297	-1.5489	1.5955
C	6.0	2.504	-1.6496	0.29
C	6.0	2.2197	0.0679	1.6243
C	6.0	3.3428	-0.617	-0.0791
C	6.0	3.2657	0.4244	0.7959
C	6.0	2.812	1.546	0.18
C	6.0	1.7496	-0.9429	-1.6245
C	6.0	2.7728	-0.121	-1.2555
C	6.0	2.4297	1.1943	-1.0874
 $END