! (Energy/Geometry) PM3
 $CONTRL 
COORD=UNIQUE
ICHARG=0
MAXIT=200
MULT=1
RUNTYP=OPTIMIZE
SCFTYP=RHF
UNITS=ANGS
! DFTTYP=PBE
 $END
 $DFT 
METHOD=GRID
 $END
 $BASIS 
! EXTFIL=.T.
! GBASIS=GEGSSBAS
! NGAUSS=6
GBASIS=PM3
! NDFUNC=1
! NPFUNC=1
 $END
 $SCF 
DAMP=.F.
DEM=.F.
DIIS=.F.
DIRSCF=.T.
EXTRAP=.T.
RSTRCT=.F.
SHIFT=.F.
SOSCF=.T.
 $END
 $STATPT 
METHOD=QA
NSTEP=100
OPTTOL=0.001
 $END
 $GUESS 
GUESS=HUCKEL
 $END
 $SYSTEM 
MWORDS=10
 $END
 $DATA 
C36 FULLERENE
C1
C	6.0	2.5256	-1.453	-0.6511
C	6.0	2.4774	-0.171	-1.1077
C	6.0	2.5361	-1.4799	0.685
C	6.0	1.877	1.8803	0.0084
C	6.0	2.5702	0.6817	0.007
C	6.0	2.4989	-0.1824	1.1111
C	6.0	1.0865	2.2311	-1.1064
C	6.0	1.4047	-2.0924	1.1105
C	6.0	0.6974	-2.6051	0.0007
C	6.0	-0.6851	-2.5966	0.0099
C	6.0	0.7011	-1.2181	1.9453
C	6.0	-0.6942	-1.2312	1.9258
C	6.0	-1.4195	-2.0985	1.1023
C	6.0	0.7133	1.2156	1.9402
C	6.0	1.4068	0.0078	1.9592
C	6.0	-1.4047	-0.0021	1.9192
C	6.0	-0.7017	1.2068	1.9201
C	6.0	1.0903	2.2762	1.1068
C	6.0	-1.3694	-2.0579	-1.0968
C	6.0	-2.5012	-1.4572	-0.6403
C	6.0	-2.5564	-1.4699	0.6976
C	6.0	-0.6802	-1.2217	-1.9749
C	6.0	0.7101	-1.2247	-1.9755
C	6.0	1.3967	-2.0644	-1.1026
C	6.0	-1.4007	-0.0003	-1.9518
C	6.0	1.4071	0.0099	-1.9851
C	6.0	0.6999	1.2076	-1.9759
C	6.0	-0.7111	1.2103	-1.953
C	6.0	-2.4773	-0.1696	-1.0794
C	6.0	-2.6105	0.71	0.0067
C	6.0	-1.8983	1.8956	0.0122
C	6.0	-1.0814	2.2439	-1.0861
C	6.0	-2.5321	-0.1706	1.1029
C	6.0	-1.0876	2.274	1.0991
C	6.0	0.004	2.9771	0.6756
C	6.0	0.0057	2.9409	-0.6574
 $END