! (Energy/Geometry) PM3
 $CONTRL 
COORD=UNIQUE
ICHARG=0
MAXIT=200
MULT=1
RUNTYP=OPTIMIZE
SCFTYP=RHF
UNITS=ANGS
! DFTTYP=PBE
 $END
 $DFT 
METHOD=GRID
 $END
 $BASIS 
! EXTFIL=.T.
! GBASIS=GEGSSBAS
! NGAUSS=6
GBASIS=PM3
! NDFUNC=1
! NPFUNC=1
 $END
 $SCF 
DAMP=.F.
DEM=.F.
DIIS=.F.
DIRSCF=.T.
EXTRAP=.T.
RSTRCT=.F.
SHIFT=.F.
SOSCF=.T.
 $END
 $STATPT 
METHOD=QA
NSTEP=100
OPTTOL=0.001
 $END
 $GUESS 
GUESS=HUCKEL
 $END
 $SYSTEM 
MWORDS=10
 $END
 $DATA 
C40 FULLERENE
C1
C	6.0	3.9004	0.2329	-0.6476
C	6.0	2.9728	-0.5652	-1.3038
C	6.0	-0.9948	-1.922	-0.9113
C	6.0	0.3087	-1.628	-1.2581
C	6.0	3.2242	1.415	-0.7215
C	6.0	2.1236	1.4177	-1.543
C	6.0	-1.8811	-0.0494	-1.8375
C	6.0	-0.5665	0.4622	-1.9634
C	6.0	0.584	-0.4091	-1.9841
C	6.0	1.9025	0.091	-1.9006
C	6.0	-2.1168	-1.3729	-1.4837
C	6.0	2.6335	1.6312	0.4745
C	6.0	2.9731	0.5741	1.2714
C	6.0	1.3333	2.047	0.3788
C	6.0	0.3181	1.6691	1.2707
C	6.0	-0.9956	1.9535	0.9463
C	6.0	-2.6369	1.6379	-0.4681
C	6.0	-1.3286	2.0697	-0.4318
C	6.0	-0.3057	1.7387	-1.3304
C	6.0	1.0059	2.0163	-1.0034
C	6.0	-2.9872	0.5924	-1.2769
C	6.0	3.9053	-0.2571	0.6454
C	6.0	3.2374	-1.4296	0.7606
C	6.0	2.1318	-1.4537	1.5646
C	6.0	-1.8748	0.057	1.8195
C	6.0	-0.5632	-0.4626	1.9374
C	6.0	0.5859	0.4124	1.939
C	6.0	1.8988	-0.1022	1.8506
C	6.0	-2.1164	1.3865	1.4969
C	6.0	1.3187	-1.9885	-0.3589
C	6.0	2.6163	-1.5742	-0.4548
C	6.0	-0.3108	-1.7631	1.3461
C	6.0	1.0048	-2.0412	1.0241
C	6.0	-2.9777	-0.5925	1.2627
C	6.0	-2.654	-1.665	0.4754
C	6.0	-1.3461	-2.0913	0.451
C	6.0	-3.2443	1.4187	0.7351
C	6.0	-3.9061	0.236	0.6315
C	6.0	-3.915	-0.2553	-0.6629
C	6.0	-3.259	-1.435	-0.736
 $END