! (Energy/Geometry) PM3
 $CONTRL 
COORD=UNIQUE
ICHARG=0
MAXIT=200
MULT=1
RUNTYP=OPTIMIZE
SCFTYP=RHF
UNITS=ANGS
! DFTTYP=PBE
 $END
 $DFT 
METHOD=GRID
 $END
 $BASIS 
! EXTFIL=.T.
! GBASIS=GEGSSBAS
! NGAUSS=6
GBASIS=PM3
! NDFUNC=1
! NPFUNC=1
 $END
 $SCF 
DAMP=.F.
DEM=.F.
DIIS=.F.
DIRSCF=.T.
EXTRAP=.T.
RSTRCT=.F.
SHIFT=.F.
SOSCF=.T.
 $END
 $STATPT 
METHOD=QA
NSTEP=100
OPTTOL=0.001
 $END
 $GUESS 
GUESS=HUCKEL
 $END
 $SYSTEM 
MWORDS=10
 $END
 $DATA 
C40 FULLERENE
C1
C	6.0	2.1912	-1.5983	-1.0316
C	6.0	1.1196	-2.3974	-1.149
C	6.0	-2.2281	-1.7576	-0.5922
C	6.0	-1.0576	-2.4381	-0.7684
C	6.0	-0.0666	-1.9108	-1.6401
C	6.0	2.1996	-0.3121	-1.5079
C	6.0	0.7984	1.6415	-1.7352
C	6.0	1.0052	0.2611	-2.0618
C	6.0	-0.1835	-0.5739	-2.1413
C	6.0	-1.4628	0.0134	-1.9623
C	6.0	-2.5327	-0.6275	-1.3379
C	6.0	2.6063	1.6219	-0.2196
C	6.0	2.9342	0.3719	-0.5398
C	6.0	1.6787	2.348	-0.8948
C	6.0	-2.6383	-1.4304	0.6999
C	6.0	-3.262	-0.2319	0.5914
C	6.0	-3.3169	0.2643	-0.6629
C	6.0	-0.4921	2.1372	-1.464
C	6.0	-1.6248	1.3739	-1.6169
C	6.0	-1.5694	-1.3712	1.5927
C	6.0	-0.4445	-2.1361	1.4411
C	6.0	-0.3369	-2.9667	0.3098
C	6.0	0.9614	-3.0521	0.0383
C	6.0	1.7487	-2.3976	0.9304
C	6.0	3.0076	-0.4145	0.5914
C	6.0	2.6938	-1.6744	0.2603
C	6.0	-2.4605	0.6227	1.2915
C	6.0	-1.4041	-0.0174	1.9337
C	6.0	-0.1261	0.5737	2.1123
C	6.0	1.0685	-0.2685	2.0492
C	6.0	0.856	-1.6609	1.7349
C	6.0	2.2867	0.3247	1.5445
C	6.0	-2.2202	1.7641	0.5559
C	6.0	-1.0395	2.4179	0.759
C	6.0	-0.0201	1.9282	1.6297
C	6.0	-2.7006	1.472	-0.7226
C	6.0	-0.3454	2.9579	-0.3261
C	6.0	0.9431	3.0507	-0.0047
C	6.0	1.1836	2.4565	1.202
C	6.0	2.249	1.6376	1.115
 $END