! (Energy/Geometry) PM3
 $CONTRL 
COORD=UNIQUE
ICHARG=0
MAXIT=200
MULT=1
RUNTYP=OPTIMIZE
SCFTYP=RHF
UNITS=ANGS
! DFTTYP=PBE
 $END
 $DFT 
METHOD=GRID
 $END
 $BASIS 
! EXTFIL=.T.
! GBASIS=GEGSSBAS
! NGAUSS=6
GBASIS=PM3
! NDFUNC=1
! NPFUNC=1
 $END
 $SCF 
DAMP=.F.
DEM=.F.
DIIS=.F.
DIRSCF=.T.
EXTRAP=.T.
RSTRCT=.F.
SHIFT=.F.
SOSCF=.T.
 $END
 $STATPT 
METHOD=QA
NSTEP=100
OPTTOL=0.001
 $END
 $GUESS 
GUESS=HUCKEL
 $END
 $SYSTEM 
MWORDS=10
 $END
 $DATA 
C40 FULLERENE
C1
C	6.0	-3.6784	0.3523	1.1022
C	6.0	-2.4901	0.583	1.7423
C	6.0	-0.3664	-0.6168	1.8723
C	6.0	-1.754	-0.5919	1.8022
C	6.0	-3.6973	-0.9457	0.6508
C	6.0	-2.4938	-1.4897	1.0474
C	6.0	1.7477	-1.554	1.1286
C	6.0	0.3625	-1.6302	1.159
C	6.0	-3.7258	-0.9447	-0.7134
C	6.0	-2.5105	-1.5064	-1.0762
C	6.0	1.7485	-1.5497	-1.1024
C	6.0	0.3615	-1.6131	-1.1632
C	6.0	-0.3738	-2.0449	-0.0038
C	6.0	-1.7585	-1.9786	-0.011
C	6.0	2.5167	-1.8433	0.0123
C	6.0	-3.73	0.3625	-1.1046
C	6.0	-2.5074	0.565	-1.7168
C	6.0	1.7455	0.5928	-1.7948
C	6.0	0.3574	0.6166	-1.8688
C	6.0	-0.3785	-0.6198	-1.8888
C	6.0	-1.7647	-0.6041	-1.8238
C	6.0	2.5082	-0.5615	-1.7139
C	6.0	-3.7018	1.1726	-0.0033
C	6.0	-2.5058	1.853	0.018
C	6.0	1.7512	1.9136	0.0026
C	6.0	0.3608	1.9991	0.0079
C	6.0	-0.3808	1.628	-1.1666
C	6.0	-1.7644	1.5731	-1.1257
C	6.0	2.5165	1.4777	-1.0669
C	6.0	1.7445	0.5999	1.8134
C	6.0	0.3591	0.6289	1.8901
C	6.0	2.4947	-0.5593	1.7194
C	6.0	-0.3744	1.6533	1.199
C	6.0	-1.7587	1.6036	1.1613
C	6.0	2.5125	1.4854	1.078
C	6.0	3.7003	-0.3453	1.0949
C	6.0	3.7206	0.9575	0.6685
C	6.0	3.7363	0.938	-0.7043
C	6.0	3.7404	-0.3769	-1.1101
C	6.0	3.7285	-1.1781	-0.008
 $END