! (Energy/Geometry) PM3
 $CONTRL 
COORD=UNIQUE
ICHARG=0
MAXIT=200
MULT=1
RUNTYP=OPTIMIZE
SCFTYP=RHF
UNITS=ANGS
! DFTTYP=PBE
 $END
 $DFT 
METHOD=GRID
 $END
 $BASIS 
! EXTFIL=.T.
! GBASIS=GEGSSBAS
! NGAUSS=6
GBASIS=PM3
! NDFUNC=1
! NPFUNC=1
 $END
 $SCF 
DAMP=.F.
DEM=.F.
DIIS=.F.
DIRSCF=.T.
EXTRAP=.T.
RSTRCT=.F.
SHIFT=.F.
SOSCF=.T.
 $END
 $STATPT 
METHOD=QA
NSTEP=100
OPTTOL=0.001
 $END
 $GUESS 
GUESS=HUCKEL
 $END
 $SYSTEM 
MWORDS=10
 $END
 $DATA 
C40 FULLERENE
C1
C	6.0	-2.9084	1.1738	-0.6812
C	6.0	-2.9244	-1.2068	0.6557
C	6.0	-2.8847	-0.0283	1.3727
C	6.0	-2.8756	1.1731	0.6872
C	6.0	-1.7663	1.864	-1.0526
C	6.0	-1.0863	1.1829	-2.0365
C	6.0	0.282	1.2215	-2.0789
C	6.0	-1.7621	1.8666	1.1017
C	6.0	-1.0416	2.377	0.0213
C	6.0	1.0162	-1.9884	-1.1518
C	6.0	0.3445	-1.1859	-2.1256
C	6.0	1.0371	0.0497	-2.3153
C	6.0	2.3035	0.2563	-1.8104
C	6.0	3.0637	-0.6304	-1.1051
C	6.0	2.2784	-1.6732	-0.6874
C	6.0	0.3644	2.4337	0.0129
C	6.0	1.0476	1.9855	-1.1661
C	6.0	2.3163	1.4446	-1.1097
C	6.0	-1.0616	-1.1733	-2.0621
C	6.0	-1.7973	0.0068	-2.1639
C	6.0	0.2714	-2.3965	-0.0196
C	6.0	-1.0984	-2.3383	-0.0192
C	6.0	-1.803	-1.86	-1.1067
C	6.0	-1.7822	-1.8714	1.0768
C	6.0	2.297	-1.7016	0.6779
C	6.0	1.027	-2.0268	1.1189
C	6.0	3.5843	0.0118	-0.0036
C	6.0	-2.9606	-1.2017	-0.7277
C	6.0	-2.9512	-0.0091	-1.4001
C	6.0	3.0529	-0.6447	1.0998
C	6.0	2.2862	0.25	1.7838
C	6.0	1.022	0.0067	2.2947
C	6.0	0.3403	-1.2453	2.1072
C	6.0	-1.0664	-1.2082	2.0719
C	6.0	2.3101	1.4593	1.1363
C	6.0	3.0846	1.2995	0.0194
C	6.0	-1.0942	1.1619	2.0802
C	6.0	0.2782	1.2039	2.1063
C	6.0	1.0358	1.988	1.2058
C	6.0	-1.7807	-0.0249	2.1968
 $END