! (Energy/Geometry) PM3
 $CONTRL 
COORD=UNIQUE
ICHARG=0
MAXIT=200
MULT=1
RUNTYP=OPTIMIZE
SCFTYP=RHF
UNITS=ANGS
! DFTTYP=PBE
 $END
 $DFT 
METHOD=GRID
 $END
 $BASIS 
! EXTFIL=.T.
! GBASIS=GEGSSBAS
! NGAUSS=6
GBASIS=PM3
! NDFUNC=1
! NPFUNC=1
 $END
 $SCF 
DAMP=.F.
DEM=.F.
DIIS=.F.
DIRSCF=.T.
EXTRAP=.T.
RSTRCT=.F.
SHIFT=.F.
SOSCF=.T.
 $END
 $STATPT 
METHOD=QA
NSTEP=100
OPTTOL=0.001
 $END
 $GUESS 
GUESS=HUCKEL
 $END
 $SYSTEM 
MWORDS=10
 $END
 $DATA 
C44 FULLERENE
C1
C	6.0	1.1127	0.6948	2.1901
C	6.0	2.4074	0.7203	1.7719
C	6.0	3.7801	0.8859	0.0514
C	6.0	2.884	1.5771	0.8403
C	6.0	-1.1891	1.3171	1.929
C	6.0	0.1513	1.6211	1.7314
C	6.0	3.3231	1.0284	-1.1933
C	6.0	2.2194	1.8342	-1.1862
C	6.0	-1.8695	2.142	-0.096
C	6.0	-0.5177	2.2709	-0.4947
C	6.0	0.5391	2.3002	0.4982
C	6.0	1.8883	2.205	0.1076
C	6.0	-2.2343	1.8264	1.2042
C	6.0	2.8567	-0.143	-1.6663
C	6.0	3.0516	-1.0976	-0.6664
C	6.0	2.0133	-2.008	-0.4822
C	6.0	1.6015	-0.0028	-2.2351
C	6.0	-0.7322	-0.6386	-2.3216
C	6.0	0.6271	-1.0062	-2.2128
C	6.0	0.895	-2.092	-1.3467
C	6.0	-2.3905	0.7209	-1.7744
C	6.0	-1.1047	0.7205	-2.2074
C	6.0	-0.138	1.6342	-1.7573
C	6.0	1.1962	1.3318	-1.9557
C	6.0	-2.895	1.5473	-0.8355
C	6.0	2.8983	-0.5321	1.5753
C	6.0	1.8519	-1.3804	1.814
C	6.0	3.6469	-0.4428	0.427
C	6.0	1.4799	-2.2534	0.8079
C	6.0	0.1726	-2.5657	0.635
C	6.0	-1.832	-1.3699	-1.7833
C	6.0	-1.492	-2.2743	-0.7967
C	6.0	-0.1819	-2.5912	-0.6596
C	6.0	-0.8975	-2.0787	1.3491
C	6.0	-0.6095	-1.0083	2.227
C	6.0	0.7459	-0.6601	2.3516
C	6.0	-1.5937	-0.0161	2.212
C	6.0	-2.0229	-2.0261	0.4917
C	6.0	-3.0456	-1.0974	0.6545
C	6.0	-2.8495	-0.1144	1.6253
C	6.0	-2.8816	-0.5206	-1.5433
C	6.0	-3.6674	-0.4266	-0.412
C	6.0	-3.8332	0.9024	-0.0517
C	6.0	-3.3663	1.0676	1.1864
 $END