! (Energy/Geometry) PM3
 $CONTRL 
COORD=UNIQUE
ICHARG=0
MAXIT=200
MULT=1
RUNTYP=OPTIMIZE
SCFTYP=RHF
UNITS=ANGS
! DFTTYP=PBE
 $END
 $DFT 
METHOD=GRID
 $END
 $BASIS 
! EXTFIL=.T.
! GBASIS=GEGSSBAS
! NGAUSS=6
GBASIS=PM3
! NDFUNC=1
! NPFUNC=1
 $END
 $SCF 
DAMP=.F.
DEM=.F.
DIIS=.F.
DIRSCF=.T.
EXTRAP=.T.
RSTRCT=.F.
SHIFT=.F.
SOSCF=.T.
 $END
 $STATPT 
METHOD=QA
NSTEP=100
OPTTOL=0.001
 $END
 $GUESS 
GUESS=HUCKEL
 $END
 $SYSTEM 
MWORDS=10
 $END
 $DATA 
C44 FULLERENE
C1
C	6.0	-3.0632	-1.4055	-0.7075
C	6.0	-3.6112	-0.1711	-0.6607
C	6.0	-3.034	0.8325	-1.3772
C	6.0	-1.8492	-1.5981	-1.3696
C	6.0	2.2002	-1.7183	-1.0798
C	6.0	0.9229	-1.7358	-1.4996
C	6.0	0.3021	-0.6121	-2.1173
C	6.0	-1.134	-0.5643	-2.0668
C	6.0	-1.7886	0.6858	-1.9989
C	6.0	-1.7278	2.4439	-0.6813
C	6.0	-2.9239	1.8772	-0.5299
C	6.0	2.2936	2.175	-0.1942
C	6.0	1.0191	2.4671	-0.5619
C	6.0	0.4125	1.7605	-1.6484
C	6.0	-0.9826	1.7888	-1.6713
C	6.0	3.2037	1.3724	-0.783
C	6.0	3.0771	-0.7312	-1.2302
C	6.0	2.5272	0.4727	-1.6238
C	6.0	1.1494	0.5847	-2.0397
C	6.0	-3.1052	1.4318	0.7454
C	6.0	-3.6514	0.1889	0.6884
C	6.0	0.2176	2.4791	0.5907
C	6.0	-1.1138	2.4416	0.5387
C	6.0	-3.0561	-0.8373	1.36
C	6.0	-1.7883	-0.6756	1.9527
C	6.0	-1.1431	0.5871	2.0423
C	6.0	-1.8793	1.6353	1.3879
C	6.0	-2.9302	-1.9178	0.5444
C	6.0	-1.7404	-2.4847	0.6987
C	6.0	0.2223	-2.4824	-0.5729
C	6.0	-1.1085	-2.4394	-0.5276
C	6.0	0.9435	1.7581	1.5198
C	6.0	0.2978	0.6229	2.0954
C	6.0	1.1356	-0.581	1.9995
C	6.0	0.4096	-1.7707	1.6207
C	6.0	-0.9846	-1.7942	1.6465
C	6.0	1.048	-2.5096	0.5692
C	6.0	3.1921	-1.3814	0.7942
C	6.0	2.316	-2.2134	0.1923
C	6.0	2.2228	1.7333	1.1
C	6.0	3.1017	0.7464	1.2473
C	6.0	2.5271	-0.4573	1.6058
C	6.0	3.9435	0.6466	0.1474
C	6.0	3.9284	-0.6488	-0.1428
 $END