! (Energy/Geometry) PM3
 $CONTRL 
COORD=UNIQUE
ICHARG=0
MAXIT=200
MULT=1
RUNTYP=OPTIMIZE
SCFTYP=RHF
UNITS=ANGS
! DFTTYP=PBE
 $END
 $DFT 
METHOD=GRID
 $END
 $BASIS 
! EXTFIL=.T.
! GBASIS=GEGSSBAS
! NGAUSS=6
GBASIS=PM3
! NDFUNC=1
! NPFUNC=1
 $END
 $SCF 
DAMP=.F.
DEM=.F.
DIIS=.F.
DIRSCF=.T.
EXTRAP=.T.
RSTRCT=.F.
SHIFT=.F.
SOSCF=.T.
 $END
 $STATPT 
METHOD=QA
NSTEP=100
OPTTOL=0.001
 $END
 $GUESS 
GUESS=HUCKEL
 $END
 $SYSTEM 
MWORDS=10
 $END
 $DATA 
C44 FULLERENE
C1
C	6.0	-4.1139	-0.1879	0.5921
C	6.0	-3.1757	-0.5597	1.5447
C	6.0	-0.8991	0.3082	2.0638
C	6.0	-2.2908	0.4727	1.8126
C	6.0	-3.9132	1.1346	0.3381
C	6.0	-2.7844	1.5157	1.0487
C	6.0	1.3832	1.2032	1.7508
C	6.0	0.0062	1.3486	1.6571
C	6.0	-3.497	1.2989	-0.9361
C	6.0	-2.2986	1.9171	-1.0001
C	6.0	1.8174	2.0643	-0.2489
C	6.0	0.4695	2.1013	-0.5222
C	6.0	-0.4824	2.1449	0.5527
C	6.0	-1.8265	2.1383	0.2789
C	6.0	2.3255	1.9123	1.0267
C	6.0	-3.2926	0.0452	-1.4546
C	6.0	-3.7529	-0.8895	-0.546
C	6.0	-2.8078	-1.7922	-0.1964
C	6.0	-1.9933	-0.0304	-1.9743
C	6.0	2.2838	0.4516	-1.8101
C	6.0	0.8904	0.3149	-2.0568
C	6.0	0.2821	-1.006	-1.994
C	6.0	-1.1296	-1.1403	-1.8405
C	6.0	-1.6096	-2.0271	-0.8311
C	6.0	-0.0142	1.3535	-1.6637
C	6.0	-1.3841	1.217	-1.7688
C	6.0	2.7929	1.4818	-1.0334
C	6.0	0.6504	-2.3448	-0.1168
C	6.0	-0.6635	-2.342	0.1266
C	6.0	3.18	-0.5819	-1.5592
C	6.0	2.4886	-1.6496	-1.1158
C	6.0	1.1701	-1.8876	-1.3273
C	6.0	-1.1749	-1.8975	1.3441
C	6.0	-2.4958	-1.655	1.1319
C	6.0	1.6032	-2.0285	0.8453
C	6.0	1.1127	-1.1465	1.8514
C	6.0	-0.2909	-1.0138	2.0147
C	6.0	1.9894	-0.0456	1.9556
C	6.0	2.7982	-1.7896	0.2059
C	6.0	3.7261	-0.8456	0.4954
C	6.0	3.2792	0.0793	1.4149
C	6.0	4.1293	-0.1472	-0.6385
C	6.0	3.9592	1.1716	-0.3485
C	6.0	3.5518	1.3351	0.9337
 $END