! (Energy/Geometry) PM3
 $CONTRL 
COORD=UNIQUE
ICHARG=0
MAXIT=200
MULT=1
RUNTYP=OPTIMIZE
SCFTYP=RHF
UNITS=ANGS
! DFTTYP=PBE
 $END
 $DFT 
METHOD=GRID
 $END
 $BASIS 
! EXTFIL=.T.
! GBASIS=GEGSSBAS
! NGAUSS=6
GBASIS=PM3
! NDFUNC=1
! NPFUNC=1
 $END
 $SCF 
DAMP=.F.
DEM=.F.
DIIS=.F.
DIRSCF=.T.
EXTRAP=.T.
RSTRCT=.F.
SHIFT=.F.
SOSCF=.T.
 $END
 $STATPT 
METHOD=QA
NSTEP=100
OPTTOL=0.001
 $END
 $GUESS 
GUESS=HUCKEL
 $END
 $SYSTEM 
MWORDS=10
 $END
 $DATA 
C48 FULLERENE
C1
C	6.0	4.508	-0.6266	0.0361
C	6.0	3.5721	-1.6476	-0.0711
C	6.0	1.3813	-1.731	-1.2144
C	6.0	2.7633	-1.4349	-1.1779
C	6.0	0.7065	-2.2691	-0.0423
C	6.0	-2.7854	-1.7011	-1.034
C	6.0	-1.4625	-2.0005	-1.0632
C	6.0	4.3774	0.1606	-1.0624
C	6.0	3.2832	-0.2909	-1.7643
C	6.0	-0.851	-1.0923	-1.9266
C	6.0	0.5013	-0.8832	-1.957
C	6.0	3.9533	1.3761	-0.6086
C	6.0	0.9621	0.4587	-2.126
C	6.0	2.3201	0.6785	-1.9551
C	6.0	2.7719	1.7219	-1.1811
C	6.0	3.6709	1.333	0.7199
C	6.0	4.063	0.0883	1.1543
C	6.0	3.0639	-0.6067	1.7455
C	6.0	2.3642	1.7858	0.9562
C	6.0	-1.8218	2.0987	0.2841
C	6.0	-0.4623	2.1034	0.5369
C	6.0	0.034	1.4027	1.7046
C	6.0	1.4213	1.1659	1.8027
C	6.0	1.8348	-0.1343	2.1496
C	6.0	-1.8333	-0.127	-2.1483
C	6.0	-1.4151	1.1692	-1.7964
C	6.0	-0.0311	1.4062	-1.6832
C	6.0	0.4628	2.1289	-0.532
C	6.0	1.8187	2.1356	-0.2945
C	6.0	-2.3808	1.7817	-0.9633
C	6.0	1.4777	-2.0041	1.0943
C	6.0	2.8064	-1.735	1.0429
C	6.0	-0.6923	-2.2634	0.0658
C	6.0	-2.7489	-1.4299	1.1638
C	6.0	-1.3694	-1.7277	1.2293
C	6.0	-3.5733	-1.6454	0.061
C	6.0	-0.4949	-0.8824	1.9775
C	6.0	0.8559	-1.0979	1.9507
C	6.0	-3.2876	-0.284	1.723
C	6.0	-2.7749	1.7035	1.1874
C	6.0	-2.317	0.6739	1.9657
C	6.0	-0.9654	0.4563	2.1449
C	6.0	-4.5108	-0.6397	-0.0441
C	6.0	-4.3874	0.1888	1.0274
C	6.0	-3.9626	1.4011	0.5961
C	6.0	-3.0698	-0.5972	-1.7645
C	6.0	-4.08	0.0949	-1.1647
C	6.0	-3.6975	1.34	-0.7406
 $END