! (Energy/Geometry) PM3
 $CONTRL 
COORD=UNIQUE
ICHARG=0
MAXIT=200
MULT=1
RUNTYP=OPTIMIZE
SCFTYP=RHF
UNITS=ANGS
! DFTTYP=PBE
 $END
 $DFT 
METHOD=GRID
 $END
 $BASIS 
! EXTFIL=.T.
! GBASIS=GEGSSBAS
! NGAUSS=6
GBASIS=PM3
! NDFUNC=1
! NPFUNC=1
 $END
 $SCF 
DAMP=.F.
DEM=.F.
DIIS=.F.
DIRSCF=.T.
EXTRAP=.T.
RSTRCT=.F.
SHIFT=.F.
SOSCF=.T.
 $END
 $STATPT 
METHOD=QA
NSTEP=100
OPTTOL=0.001
 $END
 $GUESS 
GUESS=HUCKEL
 $END
 $SYSTEM 
MWORDS=10
 $END
 $DATA 
C48 FULLERENE
C1
C	6.0	-3.0195	-0.032	1.7513
C	6.0	-3.3031	0.9835	0.8525
C	6.0	-2.3653	1.9652	0.7024
C	6.0	-1.7235	-0.1295	2.2582
C	6.0	-0.7625	0.8793	2.2173
C	6.0	-1.1578	2.0032	1.4341
C	6.0	2.397	-1.0474	1.7018
C	6.0	1.058	-0.8193	2.1243
C	6.0	0.6291	0.5758	2.2859
C	6.0	1.5805	1.5002	1.7671
C	6.0	-3.8737	0.3332	-0.2509
C	6.0	-3.1252	0.503	-1.4284
C	6.0	-2.2383	1.5578	-1.6217
C	6.0	-1.9788	2.3737	-0.55
C	6.0	-1.3376	-0.9035	-2.1751
C	6.0	-0.5193	0.1689	-2.5253
C	6.0	-2.6224	-0.7679	-1.7034
C	6.0	-0.9647	1.4338	-2.2057
C	6.0	-3.0871	-1.6153	-0.7327
C	6.0	0.8278	-1.4943	-1.9442
C	6.0	-0.4654	-1.8538	-1.6582
C	6.0	-0.7963	-2.4759	-0.4222
C	6.0	-2.1144	-2.307	-0.0039
C	6.0	1.8911	-1.9287	-1.2406
C	6.0	3.0782	-1.2655	-1.1658
C	6.0	-0.7038	2.771	-0.5465
C	6.0	0.008	2.2497	-1.6073
C	6.0	1.3833	1.9427	-1.4843
C	6.0	1.8802	0.691	-2.0129
C	6.0	0.8181	-0.1708	-2.4088
C	6.0	3.0618	0.1062	-1.4673
C	6.0	-3.9829	-0.9874	0.0885
C	6.0	-3.502	-1.2185	1.3187
C	6.0	-2.4011	-2.0024	1.3149
C	6.0	1.6204	-2.4096	0.0516
C	6.0	0.3003	-2.4709	0.5085
C	6.0	0.0161	-1.7376	1.74
C	6.0	-1.3229	-1.4579	1.9858
C	6.0	2.7219	-1.9851	0.7441
C	6.0	3.7529	-1.4949	-0.0121
C	6.0	4.1879	-0.3127	0.4258
C	6.0	2.0241	2.3078	-0.2552
C	6.0	3.146	1.6631	0.1727
C	6.0	3.8435	0.6923	-0.4622
C	6.0	1.1319	2.4327	0.8369
C	6.0	-0.1792	2.6565	0.6942
C	6.0	3.3558	-0.0577	1.5017
C	6.0	2.8322	1.1571	1.4103
 $END