! (Energy/Geometry) PM3
 $CONTRL 
COORD=UNIQUE
ICHARG=0
MAXIT=200
MULT=1
RUNTYP=OPTIMIZE
SCFTYP=RHF
UNITS=ANGS
! DFTTYP=PBE
 $END
 $DFT 
METHOD=GRID
 $END
 $BASIS 
! EXTFIL=.T.
! GBASIS=GEGSSBAS
! NGAUSS=6
GBASIS=PM3
! NDFUNC=1
! NPFUNC=1
 $END
 $SCF 
DAMP=.F.
DEM=.F.
DIIS=.F.
DIRSCF=.T.
EXTRAP=.T.
RSTRCT=.F.
SHIFT=.F.
SOSCF=.T.
 $END
 $STATPT 
METHOD=QA
NSTEP=100
OPTTOL=0.001
 $END
 $GUESS 
GUESS=HUCKEL
 $END
 $SYSTEM 
MWORDS=10
 $END
 $DATA 
C52 FULLERENE
C1
C	6.0	4.8658	-0.6188	-0.3958
C	6.0	3.8794	-1.4624	-0.8768
C	6.0	1.0175	-1.9632	-0.9418
C	6.0	1.6179	-0.9803	-1.7967
C	6.0	3.0178	-0.7627	-1.7282
C	6.0	-2.6266	-1.4376	-1.4606
C	6.0	-1.2556	-1.327	-1.632
C	6.0	4.7051	0.5704	-1.0517
C	6.0	0.7011	0.096	-2.0314
C	6.0	3.5645	0.4971	-1.8075
C	6.0	4.358	1.4757	-0.0928
C	6.0	1.2649	1.3588	-1.6643
C	6.0	2.6403	1.4653	-1.5035
C	6.0	3.1783	2.0766	-0.3876
C	6.0	-3.0171	0.7896	-1.7006
C	6.0	-1.6158	0.9992	-1.7925
C	6.0	0.3718	2.0587	-0.8131
C	6.0	-0.6961	-0.0756	-2.0228
C	6.0	-3.5663	-0.475	-1.7286
C	6.0	4.1469	0.8303	1.087
C	6.0	4.5359	-0.4768	0.9473
C	6.0	3.5397	-1.3512	1.2559
C	6.0	2.8545	1.1534	1.5512
C	6.0	-1.3064	1.8211	1.2968
C	6.0	0.043	1.665	1.4574
C	6.0	0.5206	0.4986	2.1321
C	6.0	1.9164	0.2341	2.0784
C	6.0	2.327	-1.0901	1.8558
C	6.0	0.9368	2.1967	0.5065
C	6.0	2.2897	2.0644	0.6449
C	6.0	-3.1874	2.0264	0.1034
C	6.0	-1.8516	2.2856	0.1017
C	6.0	-1.0066	1.9836	-0.9587
C	6.0	-3.9248	1.487	-0.8952
C	6.0	1.8663	-2.2967	0.1183
C	6.0	3.1896	-2.039	0.1232
C	6.0	-0.3623	-2.0403	-0.792
C	6.0	-2.2851	-2.0632	0.6366
C	6.0	-0.9242	-2.1941	0.5242
C	6.0	-3.1929	-2.0949	-0.389
C	6.0	-2.3225	1.0636	1.8393
C	6.0	-1.9024	-0.2516	2.0751
C	6.0	-0.5107	-0.5151	2.134
C	6.0	-0.0291	-1.6887	1.485
C	6.0	1.3129	-1.8591	1.3211
C	6.0	-2.8481	-1.1561	1.5443
C	6.0	-4.3757	-1.505	-0.0905
C	6.0	-3.5222	1.3274	1.2239
C	6.0	-4.5268	0.4693	0.8972
C	6.0	-4.1309	-0.8342	1.0717
C	6.0	-4.9229	0.6385	-0.4337
C	6.0	-4.7533	-0.5706	-1.0215
 $END