! (Energy/Geometry) PM3
 $CONTRL 
COORD=UNIQUE
ICHARG=0
MAXIT=200
MULT=1
RUNTYP=OPTIMIZE
SCFTYP=RHF
UNITS=ANGS
! DFTTYP=PBE
 $END
 $DFT 
METHOD=GRID
 $END
 $BASIS 
! EXTFIL=.T.
! GBASIS=GEGSSBAS
! NGAUSS=6
GBASIS=PM3
! NDFUNC=1
! NPFUNC=1
 $END
 $SCF 
DAMP=.F.
DEM=.F.
DIIS=.F.
DIRSCF=.T.
EXTRAP=.T.
RSTRCT=.F.
SHIFT=.F.
SOSCF=.T.
 $END
 $STATPT 
METHOD=QA
NSTEP=100
OPTTOL=0.001
 $END
 $GUESS 
GUESS=HUCKEL
 $END
 $SYSTEM 
MWORDS=10
 $END
 $DATA 
C52 FULLERENE
C1
C	6.0	3.7587	-0.7618	-1.3766
C	6.0	3.7945	-1.6287	-0.326
C	6.0	3.5485	1.3139	-1.251
C	6.0	4.4757	0.3457	-1.0216
C	6.0	0.2541	-2.4285	-0.1666
C	6.0	2.594	-2.1572	0.0395
C	6.0	1.4534	-2.1773	-0.766
C	6.0	2.5396	-0.4718	-1.9681
C	6.0	0.0653	-0.7152	-2.1637
C	6.0	1.3682	-1.23	-1.8495
C	6.0	-2.4111	-0.9088	-1.9278
C	6.0	-1.1232	-1.4266	-1.8294
C	6.0	-0.975	-2.286	-0.7256
C	6.0	0.9838	2.2921	-0.7432
C	6.0	1.1365	1.4403	-1.8594
C	6.0	2.4187	0.9146	-1.9607
C	6.0	-1.3723	1.2451	-1.8318
C	6.0	-0.0699	0.741	-2.1687
C	6.0	-2.5413	0.48	-1.9455
C	6.0	2.3854	-1.7005	1.3673
C	6.0	3.4562	-0.8766	1.5916
C	6.0	0.0654	-2.126	1.1866
C	6.0	1.0967	-1.4739	1.8205
C	6.0	0.7099	-0.1734	2.2915
C	6.0	1.7676	0.7798	2.0444
C	6.0	3.1155	0.4414	1.7837
C	6.0	1.2689	1.8676	1.3236
C	6.0	-1.2705	-1.9029	1.3513
C	6.0	-3.1038	-0.4603	1.7707
C	6.0	-1.7618	-0.8007	2.0563
C	6.0	-0.7051	0.1555	2.2808
C	6.0	-1.093	1.4441	1.78
C	6.0	-0.0594	2.0883	1.1388
C	6.0	-3.2507	-1.8698	-0.0169
C	6.0	-1.9838	-2.2698	0.2173
C	6.0	-3.9756	-1.1178	0.8914
C	6.0	-4.4755	-0.3652	-1.0273
C	6.0	-3.5512	-1.3223	-1.244
C	6.0	4.4653	-0.9746	0.6755
C	6.0	4.8581	0.2636	0.2868
C	6.0	3.9789	1.1244	0.9053
C	6.0	1.9936	2.2551	0.2045
C	6.0	3.2674	1.864	-0.0151
C	6.0	-3.4471	0.8607	1.567
C	6.0	-2.3806	1.6732	1.3236
C	6.0	-4.8621	-0.2508	0.2766
C	6.0	-4.4695	0.9865	0.6638
C	6.0	-3.8269	1.6627	-0.3366
C	6.0	-3.7712	0.7634	-1.3621
C	6.0	-0.2548	2.4565	-0.1989
C	6.0	-2.6162	2.1948	0.0232
C	6.0	-1.4702	2.2251	-0.776
 $END