! (Energy/Geometry) PM3
 $CONTRL 
COORD=UNIQUE
ICHARG=0
MAXIT=200
MULT=1
RUNTYP=OPTIMIZE
SCFTYP=RHF
UNITS=ANGS
! DFTTYP=PBE
 $END
 $DFT 
METHOD=GRID
 $END
 $BASIS 
! EXTFIL=.T.
! GBASIS=GEGSSBAS
! NGAUSS=6
GBASIS=PM3
! NDFUNC=1
! NPFUNC=1
 $END
 $SCF 
DAMP=.F.
DEM=.F.
DIIS=.F.
DIRSCF=.T.
EXTRAP=.T.
RSTRCT=.F.
SHIFT=.F.
SOSCF=.T.
 $END
 $STATPT 
METHOD=QA
NSTEP=100
OPTTOL=0.001
 $END
 $GUESS 
GUESS=HUCKEL
 $END
 $SYSTEM 
MWORDS=10
 $END
 $DATA 
C70 FULLERENE
C1
C	6.0	3.1004	-2.2295	0.6489
C	6.0	2.3569	-2.2755	1.8062
C	6.0	3.8685	-1.1257	0.3176
C	6.0	2.3606	-1.1905	2.6493
C	6.0	1.1889	-0.806	3.2678
C	6.0	0.0054	-1.5495	3.1503
C	6.0	-1.1776	-0.8038	3.2693
C	6.0	3.104	-1.3076	-1.9212
C	6.0	2.3587	-2.4209	-1.6048
C	6.0	3.8734	-0.6492	-0.9785
C	6.0	2.356	-2.8828	-0.312
C	6.0	1.1847	-3.3637	0.2396
C	6.0	-0.0032	-3.483	-0.4919
C	6.0	-1.1925	-3.3624	0.2385
C	6.0	-0.0013	-2.6864	2.2726
C	6.0	1.1858	-2.9755	1.5923
C	6.0	-1.1901	-2.9717	1.5925
C	6.0	3.1243	1.4331	-1.8401
C	6.0	2.3724	0.7796	-2.7964
C	6.0	3.8842	0.7299	-0.9256
C	6.0	2.3581	-0.5916	-2.8349
C	6.0	1.186	-1.2682	-3.1094
C	6.0	0.006	-0.5953	-3.4519
C	6.0	-1.1784	-1.2662	-3.1103
C	6.0	-0.0023	-2.9961	-1.8463
C	6.0	1.1854	-2.4385	-2.3322
C	6.0	-1.1899	-2.4367	-2.3305
C	6.0	3.1097	2.1786	0.7951
C	6.0	2.3653	2.8928	-0.1246
C	6.0	3.8819	1.0975	0.4049
C	6.0	2.3683	2.517	-1.4465
C	6.0	1.1951	2.5828	-2.1701
C	6.0	0.0063	3.1074	-1.6485
C	6.0	-1.1842	2.5842	-2.1688
C	6.0	0.0053	0.8398	-3.4103
C	6.0	1.1958	1.4719	-3.0317
C	6.0	-1.1833	1.4729	-3.0317
C	6.0	3.1207	-0.0822	2.3341
C	6.0	2.373	1.0126	2.7274
C	6.0	3.8813	-0.0445	1.1832
C	6.0	2.3643	2.146	1.9527
C	6.0	1.1934	2.8555	1.7754
C	6.0	0.0123	2.5175	2.4494
C	6.0	-1.1709	2.8558	1.7768
C	6.0	0.0069	3.5053	-0.2662
C	6.0	1.1932	3.3377	0.4557
C	6.0	-1.1797	3.3365	0.4553
C	6.0	0.0069	1.3342	3.261
C	6.0	1.1942	0.5964	3.3247
C	6.0	-1.1814	0.6002	3.3224
C	6.0	-3.0824	2.1894	0.7972
C	6.0	-2.3477	2.1489	1.9624
C	6.0	-2.3589	1.0138	2.7339
C	6.0	-3.8435	1.1037	0.392
C	6.0	-3.1028	1.4396	-1.8469
C	6.0	-2.362	2.5343	-1.4474
C	6.0	-2.3551	2.9083	-0.1298
C	6.0	-3.8509	0.7183	-0.9357
C	6.0	-3.0945	-1.3133	-1.9306
C	6.0	-2.3558	-0.5859	-2.8448
C	6.0	-2.3584	0.784	-2.8061
C	6.0	-3.8515	-0.6622	-0.9707
C	6.0	-3.0979	-2.2406	0.6537
C	6.0	-2.3693	-2.8978	-0.3196
C	6.0	-2.3675	-2.4358	-1.6091
C	6.0	-3.854	-1.123	0.3324
C	6.0	-3.1072	-0.0741	2.3435
C	6.0	-2.36	-1.1942	2.6586
C	6.0	-2.3623	-2.2781	1.8184
C	6.0	-3.8571	-0.0346	1.185
 $END