! (Energy/Geometry) PM3
 $CONTRL 
COORD=UNIQUE
ICHARG=0
MAXIT=200
MULT=1
RUNTYP=OPTIMIZE
SCFTYP=RHF
UNITS=ANGS
! DFTTYP=PBE
 $END
 $DFT 
METHOD=GRID
 $END
 $BASIS 
! EXTFIL=.T.
! GBASIS=GEGSSBAS
! NGAUSS=6
GBASIS=PM3
! NDFUNC=1
! NPFUNC=1
 $END
 $SCF 
DAMP=.F.
DEM=.F.
DIIS=.F.
DIRSCF=.T.
EXTRAP=.T.
RSTRCT=.F.
SHIFT=.F.
SOSCF=.T.
 $END
 $STATPT 
METHOD=QA
NSTEP=100
OPTTOL=0.001
 $END
 $GUESS 
GUESS=HUCKEL
 $END
 $SYSTEM 
MWORDS=10
 $END
 $DATA 
C76 FULLERENE
C1
C	6.0	0.1625	2.3936	2.6789
C	6.0	1.4856	1.9971	2.6538
C	6.0	2.2793	2.6194	1.6704
C	6.0	3.3837	1.9934	1.1309
C	6.0	3.7441	0.7563	1.5692
C	6.0	0.6949	-0.2265	3.3996
C	6.0	1.7915	0.6661	3.0691
C	6.0	2.9686	0.1027	2.5146
C	6.0	0.9019	-1.5882	3.0818
C	6.0	2.0604	-2.0628	2.509
C	6.0	3.1042	-1.2372	2.239
C	6.0	-0.6706	0.2048	3.4028
C	6.0	-1.7651	-0.6927	3.0759
C	6.0	-0.8759	1.5647	3.0895
C	6.0	-2.9526	-0.1338	2.5214
C	6.0	3.8582	1.3665	-1.0992
C	6.0	4.2587	0.1335	-0.6633
C	6.0	3.4771	2.3372	-0.1985
C	6.0	4.2637	-0.1812	0.6845
C	6.0	3.8779	-1.4194	1.1073
C	6.0	3.7351	-0.7929	-1.5599
C	6.0	3.3686	-2.029	-1.1163
C	6.0	3.4774	-2.3861	0.2114
C	6.0	1.7504	3.0567	-1.6374
C	6.0	2.0582	2.0246	-2.4944
C	6.0	2.4422	3.1843	-0.4607
C	6.0	3.0955	1.1917	-2.234
C	6.0	2.9642	-0.1444	-2.5146
C	6.0	0.8926	1.5741	-3.0705
C	6.0	0.6893	0.2137	-3.3919
C	6.0	1.778	-0.6935	-3.0649
C	6.0	1.4647	-2.0164	-2.6387
C	6.0	0.1397	-2.3989	-2.6569
C	6.0	2.2544	-2.6404	-1.6521
C	6.0	-1.6725	3.4255	-0.6359
C	6.0	-0.3173	3.7347	-0.6049
C	6.0	0.412	3.2941	-1.7128
C	6.0	-0.1364	2.4128	-2.6586
C	6.0	-1.4568	2.0223	-2.6338
C	6.0	-2.2484	2.6332	-1.6423
C	6.0	-3.7263	0.7947	-1.5467
C	6.0	-3.3578	2.028	-1.102
C	6.0	-0.8943	-1.566	-3.0715
C	6.0	-0.6802	-0.2056	-3.3895
C	6.0	-1.7738	0.6951	-3.0552
C	6.0	-2.9579	0.1391	-2.5003
C	6.0	0.3647	3.7416	0.6562
C	6.0	1.7145	3.4348	0.6808
C	6.0	-2.4116	3.1943	0.5075
C	6.0	-1.7164	3.0702	1.6797
C	6.0	-0.3804	3.3017	1.7489
C	6.0	-3.4632	2.3617	0.2302
C	6.0	-2.0392	2.0343	2.5248
C	6.0	-3.0796	1.2129	2.2498
C	6.0	-3.8579	1.3885	1.1218
C	6.0	-3.8452	-1.3637	-1.0932
C	6.0	-4.2493	-0.1335	-0.6515
C	6.0	-4.2568	0.1536	0.7041
C	6.0	-3.4573	-2.3242	-0.1792
C	6.0	-1.7326	-3.0475	-1.6431
C	6.0	-2.0598	-2.027	-2.504
C	6.0	-3.0937	-1.2022	-2.2376
C	6.0	-2.4157	-3.1659	-0.4588
C	6.0	1.695	-3.4442	-0.6485
C	6.0	0.3399	-3.7435	-0.6152
C	6.0	-0.3961	-3.2962	-1.7142
C	6.0	0.4053	-3.3268	1.7419
C	6.0	1.7506	-3.1029	1.6676
C	6.0	2.4386	-3.2267	0.4927
C	6.0	-1.6921	-3.435	0.6824
C	6.0	-0.3454	-3.7519	0.644
C	6.0	-3.7486	-0.7859	1.5872
C	6.0	-3.3699	-2.0173	1.1594
C	6.0	-2.2639	-2.6405	1.6904
C	6.0	-1.4558	-2.0245	2.6669
C	6.0	-0.1366	-2.4248	2.6805
 $END